
List of user-set options:

                                    Name   Value                used
                           compl_inf_tol = 1                     yes
                         constr_viol_tol = 1                     yes
                            dual_inf_tol = 1000                  yes
                           linear_solver = ma97                  yes
                              ma86_small = 1e-30                  no
                                  ma86_u = 0.0001                 no
                              ma97_order = best                  yes
                              ma97_small = 1e-30                 yes
                            ma97_switch1 = at_start              yes
                            ma97_switch2 = od_hd_reuse           yes
                                  ma97_u = 1e-06                 yes
                               ma97_umax = 0.5                   yes
                                max_iter = 1000                  yes
                    max_refinement_steps = 20                    yes
                    min_refinement_steps = 5                     yes
                                 mu_init = 1e-06                 yes
           mu_superlinear_decrease_power = 1.25                  yes
                   nlp_scaling_min_value = 1e-08                 yes
                        option_file_name = Preset_Case:_820_NCP.opt  yes
                             output_file = ./tmp/Preset_Case:_820_NCP.output  yes
                      print_user_options = yes                   yes
        required_infeasibility_reduction = 1                      no
                                     tol = 1e-08                 yes
                   warm_start_bound_frac = 1e-20                 yes
                   warm_start_bound_push = 1e-20                 yes
                   warm_start_init_point = yes                   yes
              warm_start_mult_bound_push = 1e-20                 yes
                warm_start_mult_init_max = 1e+40                 yes
             warm_start_slack_bound_frac = 1e-20                 yes
             warm_start_slack_bound_push = 1e-20                 yes

******************************************************************************
This program contains Ipopt, a library for large-scale nonlinear optimization.
 Ipopt is released as open source code under the Eclipse Public License (EPL).
         For more information visit http://projects.coin-or.org/Ipopt
******************************************************************************

This is Ipopt version 3.12.10, running with linear solver ma97.

Number of nonzeros in equality constraint Jacobian...:   117167
Number of nonzeros in inequality constraint Jacobian.:      213
Number of nonzeros in Lagrangian Hessian.............:    47513

Total number of variables............................:    29977
                     variables with only lower bounds:    11312
                variables with lower and upper bounds:    15135
                     variables with only upper bounds:        0
Total number of equality constraints.................:    29864
Total number of inequality constraints...............:       25
        inequality constraints with only lower bounds:        4
   inequality constraints with lower and upper bounds:        0
        inequality constraints with only upper bounds:       21

iter    objective    inf_pr   inf_du lg(mu)  ||d||  lg(rg) alpha_du alpha_pr  ls
   0 -1.2751838e-01 1.34e-01 2.00e+00  -6.0 0.00e+00    -  0.00e+00 0.00e+00   0
In iteration 0, 8 Slacks too small, adjusting variable bounds
   1 -1.2751838e-01 1.34e-01 9.28e+02  -6.0 1.07e+10    -  9.27e-14 7.90e-19h  1
   2 -1.2751809e-01 1.34e-01 1.02e+03  -6.0 2.13e+02    -  1.00e-02 9.82e-06f  1
   3 -1.2751564e-01 1.34e-01 9.64e+02  -6.0 1.92e+02    -  3.72e-02 9.01e-05h  1
   4 -1.2697029e-01 1.32e-01 9.03e+02  -6.0 2.20e+02    -  8.32e-02 1.44e-02h  3
   5 -1.2650101e-01 1.29e-01 8.76e+02  -6.0 1.83e+02    -  1.20e-01 1.75e-02h  3
   6 -1.2607266e-01 1.27e-01 8.56e+02  -6.0 1.78e+02    -  6.66e-02 1.61e-02h  3
   7 -1.2561588e-01 1.25e-01 8.34e+02  -6.0 1.83e+02    -  7.62e-02 1.50e-02h  3
   8 -1.2513851e-01 1.23e-01 8.00e+02  -6.0 1.72e+02    -  1.53e-01 1.71e-02h  3
   9 -1.2474243e-01 1.21e-01 7.75e+02  -6.0 1.80e+02    -  1.16e-01 1.45e-02h  4
iter    objective    inf_pr   inf_du lg(mu)  ||d||  lg(rg) alpha_du alpha_pr  ls
  10 -1.2435186e-01 1.20e-01 7.56e+02  -6.0 1.80e+02    -  6.93e-02 1.44e-02h  4
  11 -1.2396538e-01 1.18e-01 7.14e+02  -6.0 1.76e+02    -  2.26e-01 1.42e-02h  4
  12 -1.2355969e-01 1.16e-01 6.99e+02  -6.0 2.04e+02    -  6.00e-02 1.50e-02h  4
  13 -1.2315891e-01 1.14e-01 6.88e+02  -6.0 2.14e+02    -  2.87e-01 1.50e-02h  4
  14 -1.1902778e-01 3.10e-01 2.57e+03  -6.0 2.86e+02    -  5.15e-02 1.55e-01w  1
  15 -1.1900758e-01 3.09e-01 3.21e+05  -6.0 3.11e+02    -  3.71e-01 1.34e-03w  1
  16 -1.1250480e-01 1.57e+00 1.52e+05  -6.0 4.30e+02    -  8.16e-02 3.09e-01w  1
  17 -1.2290072e-01 1.13e-01 6.87e+02  -6.0 4.67e+01  -2.0 5.15e-02 9.68e-03h  4
  18 -1.2263469e-01 1.12e-01 2.05e+03  -6.0 2.98e+02    -  3.88e-01 1.00e-02h  5
  19 -1.2238043e-01 1.11e-01 2.19e+03  -6.0 4.23e+02    -  4.12e-02 9.25e-03h  6
iter    objective    inf_pr   inf_du lg(mu)  ||d||  lg(rg) alpha_du alpha_pr  ls
  20 -1.2211831e-01 1.10e-01 3.97e+03  -6.0 4.33e+02    -  3.38e-01 9.50e-03h  6
  21 -1.2166241e-01 1.08e-01 4.04e+03  -6.0 5.37e+02    -  4.37e-02 1.49e-02h  6
  22 -1.2143649e-01 1.08e-01 5.79e+03  -6.0 5.47e+02    -  3.90e-01 7.31e-03h  7
  23 -1.2116975e-01 1.07e-01 5.83e+03  -6.0 6.70e+02    -  4.74e-02 7.48e-03h  7
  24 -1.2090255e-01 1.06e-01 6.39e+03  -6.0 6.81e+02    -  3.33e-01 7.47e-03h  7
  25 -1.2060888e-01 1.05e-01 6.33e+03  -6.0 7.60e+02    -  5.28e-02 7.62e-03h  7
  26 -1.2031535e-01 1.04e-01 6.00e+03  -6.0 7.67e+02    -  4.91e-01 7.66e-03h  7
  27 -1.1183096e-01 2.65e+01 1.09e+04  -6.0 9.02e+02    -  4.60e-02 2.13e-01w  1
  28 -1.1181117e-01 2.64e+01 1.09e+04  -6.0 3.11e+01  -2.5 7.01e-02 9.14e-04w  1
  29 -1.1190520e-01 2.59e+01 1.07e+04  -6.0 1.29e+03    -  7.71e-02 2.29e-02w  1
iter    objective    inf_pr   inf_du lg(mu)  ||d||  lg(rg) alpha_du alpha_pr  ls
  30 -1.2018278e-01 1.04e-01 5.96e+03  -6.0 3.75e+01  -3.0 4.60e-02 3.32e-03h  6
  31 -1.2012877e-01 1.04e-01 6.03e+03  -6.0 8.92e+02    -  2.57e-01 1.38e-03h  8
  32 -1.2000966e-01 1.03e-01 1.42e+04  -6.0 9.76e+01  -3.4 1.37e-01 6.05e-03h  5
  33 -1.1989141e-01 1.03e-01 6.23e+04  -6.0 6.92e+01  -3.0 3.39e-01 5.98e-03h  5
  34 -1.1849245e-01 7.29e+00 6.11e+04  -6.0 5.14e+02  -3.5 1.97e-02 1.97e-02s 17
  35 -1.1672219e-01 8.93e+00 5.79e+04  -6.0 1.22e+02  -3.1 5.31e-02 5.31e-02s 17
  36 -1.1654234e-01 8.89e+00 5.76e+04  -6.0 1.20e+02  -3.5 6.05e-03 6.05e-03s 17
  37 -1.1527825e-01 8.65e+00 5.47e+04  -6.0 6.47e+01  -3.1 5.30e-02 5.30e-02s 17
  38 -1.1524491e-01 8.63e+00 5.45e+04  -6.0 4.45e+01  -2.7 3.22e-03 3.22e-03s 17
  39 -1.1524996e-01 8.62e+00 5.44e+04  -6.0 8.28e+01  -3.2 1.22e-03 1.22e-03s 17
iter    objective    inf_pr   inf_du lg(mu)  ||d||  lg(rg) alpha_du alpha_pr  ls
  40 -1.1503774e-01 8.40e+00 5.32e+04  -6.0 5.19e+01  -2.7 2.53e-02 2.53e-02s 17
  41 -1.1463007e-01 8.13e+00 5.16e+04  -6.0 3.73e+01  -2.3 3.37e-02 3.37e-02s 17
  42 -1.1472241e-01 8.04e+00 5.11e+04  -6.0 7.50e+01  -2.8 1.11e-02 1.11e-02s 17
  43 -1.1466348e-01 7.98e+00 5.07e+04  -6.0 3.67e+01  -2.4 7.90e-03 7.90e-03s 17
  44 -1.1467599e-01 7.87e+00 5.01e+04  -6.0 9.42e+01  -2.8 1.37e-02 1.37e-02s 17
  45r-1.1467599e-01 7.87e+00 1.00e+03   0.6 0.00e+00  -2.4 0.00e+00 0.00e+00R  1
  46r-1.1441874e-01 7.87e+00 1.08e+03   0.6 8.65e+03    -  2.02e-06 8.10e-07f  1
  47r-1.1316545e-01 7.82e+00 5.97e+03   0.6 6.34e+03    -  6.44e-06 5.21e-06f  1
  48 -1.1310952e-01 7.80e+00 2.13e+06  -6.0 7.63e+01    -  1.35e-01 2.39e-03h  1
  49 -1.1308067e-01 7.79e+00 1.12e+06  -6.0 7.39e+01    -  2.40e-03 1.29e-03h  1
iter    objective    inf_pr   inf_du lg(mu)  ||d||  lg(rg) alpha_du alpha_pr  ls
  50 -1.1280053e-01 7.71e+00 1.11e+06  -6.0 1.01e+02    -  1.15e-01 1.13e-02h  2
  51 -1.1278376e-01 7.70e+00 1.11e+06  -6.0 9.88e+01    -  1.54e-02 7.23e-04h  5
  52 -1.1278181e-01 7.70e+00 1.11e+06  -6.0 9.88e+01    -  1.80e-01 8.49e-05h  8
  53 -1.1278092e-01 7.70e+00 1.11e+06  -6.0 1.01e+02    -  1.72e-02 4.15e-05h  9
  54 -1.1278046e-01 7.70e+00 1.41e+06  -6.0 1.03e+02    -  1.37e-01 2.22e-05h 10
  55 -1.1223517e-01 7.48e+00 1.35e+06  -6.0 1.35e+02    -  1.78e-02 2.84e-02h  1
  56 -1.0974513e-01 6.49e+00 1.33e+06  -6.0 1.99e+02    -  2.18e-01 1.41e-01h  1
  57 -1.1058336e-01 6.25e+00 1.35e+06  -6.0 2.37e+02    -  6.95e-02 3.74e-02h  1
  58 -1.1067311e-01 6.22e+00 1.86e+06  -6.0 1.89e+02    -  2.30e-01 4.03e-03h  1
  59 -1.1661014e-01 3.66e+00 8.43e+05  -6.0 3.64e+02    -  5.47e-02 3.08e-01h  1
iter    objective    inf_pr   inf_du lg(mu)  ||d||  lg(rg) alpha_du alpha_pr  ls
  60r-1.1661014e-01 3.66e+00 1.00e+03   0.3 0.00e+00    -  0.00e+00 3.75e-07R  5
  61r-1.1644549e-01 3.65e+00 2.62e+03   0.3 6.40e+03    -  5.48e-06 1.66e-06f  1
  62 -1.1645225e-01 3.65e+00 4.24e+05  -6.0 1.18e+02    -  3.15e-02 4.98e-04h  1
  63 -1.1646044e-01 3.65e+00 5.04e+05  -6.0 1.11e+02    -  4.99e-04 5.93e-04h  1
  64 -1.1667925e-01 3.60e+00 2.02e+06  -6.0 1.75e+02    -  2.69e-01 1.30e-02h  1
  65 -1.1751203e-01 3.42e+00 1.76e+06  -6.0 1.67e+02    -  1.41e-02 5.09e-02h  1
  66 -1.1768889e-01 3.37e+00 1.72e+06  -6.0 1.61e+02    -  8.17e-03 1.21e-02h  1
  67 -1.1773427e-01 3.36e+00 1.86e+06  -6.0 2.27e+02    -  2.22e-02 4.64e-03h  1
  68 -1.1795609e-01 3.28e+00 1.68e+06  -6.0 2.26e+02    -  5.96e-03 2.26e-02h  1
  69 -1.1950067e-01 2.68e+00 1.91e+06  -6.0 2.17e+02    -  2.39e-01 1.74e-01h  1
iter    objective    inf_pr   inf_du lg(mu)  ||d||  lg(rg) alpha_du alpha_pr  ls
  70 -1.1990364e-01 2.49e+00 1.73e+06  -6.0 1.42e+02    -  5.76e-02 6.95e-02h  1
  71 -1.2169668e-01 1.52e+00 6.56e+05  -6.0 1.28e+02    -  2.31e-01 3.39e-01h  1
  72 -1.2381403e-01 1.22e+00 3.76e+06  -6.0 2.00e+02    -  4.40e-06 3.85e-01h  1
  73 -1.2869261e-01 9.83e-01 3.73e+06  -6.0 1.67e+02    -  6.33e-02 8.36e-02h  1
  74 -1.2916107e-01 9.65e-01 3.09e+06  -6.0 2.24e+02    -  7.19e-02 1.79e-02h  1
  75 -1.3023499e-01 7.26e-01 2.11e+06  -6.0 2.22e+01    -  1.01e-02 2.53e-01h  1
  76 -1.3208302e-01 1.57e-01 1.89e+05  -6.0 1.03e+01    -  2.53e-01 8.13e-01h  1
  77 -1.3246719e-01 1.14e-01 1.33e+06  -6.0 7.92e+00    -  4.62e-01 8.77e-01h  1
  78 -1.3241011e-01 1.07e-01 3.32e+06  -6.0 1.90e+01    -  1.42e-01 5.83e-02h  1
  79r-1.3241011e-01 1.07e-01 1.00e+03  -1.4 0.00e+00    -  0.00e+00 1.93e-07R  2
iter    objective    inf_pr   inf_du lg(mu)  ||d||  lg(rg) alpha_du alpha_pr  ls
  80r-1.3241771e-01 1.02e-01 1.00e+03  -1.4 2.32e+03    -  8.96e-05 4.41e-05f  1
  81 -1.3241537e-01 9.67e-02 2.19e+06  -6.0 5.84e-01    -  3.24e-02 5.45e-02h  1
  82 -1.3240993e-01 8.52e-02 1.82e+06  -6.0 3.43e-01    -  5.45e-02 1.18e-01h  1
  83 -1.3240445e-01 7.17e-02 1.53e+06  -6.0 2.89e-01    -  4.22e-01 1.58e-01h  1
  84 -1.3256735e-01 1.35e-02 2.87e+05  -6.0 6.35e-01    -  4.98e-01 8.12e-01h  1
  85 -1.3271224e-01 1.97e-05 4.05e+01  -6.0 4.93e-01    -  6.48e-01 1.00e+00h  1
  86 -1.3336693e-01 1.93e-04 2.79e+01  -6.0 2.06e+00    -  5.43e-01 1.00e+00h  1
  87 -1.3497484e-01 2.76e-03 1.33e+01  -6.0 4.57e+00    -  5.23e-01 1.00e+00h  1
  88 -1.3809151e-01 7.37e-03 1.01e+01  -6.0 9.34e+00    -  2.39e-01 1.00e+00h  1
  89 -1.4120961e-01 1.36e-02 4.16e+00  -6.0 8.83e+00    -  5.87e-01 1.00e+00h  1
iter    objective    inf_pr   inf_du lg(mu)  ||d||  lg(rg) alpha_du alpha_pr  ls
  90 -1.4558118e-01 6.21e-02 7.09e+00  -6.0 1.38e+01    -  2.09e-01 8.63e-01h  1
  91 -1.4877473e-01 7.27e-02 2.26e+00  -6.0 1.55e+01    -  6.34e-01 5.83e-01h  1
  92 -1.5700129e-01 3.30e-01 5.47e+00  -6.0 3.68e+01    -  2.55e-01 6.73e-01h  1
  93 -1.6224282e-01 3.74e-01 2.98e+01  -6.0 3.82e+01    -  6.02e-01 4.19e-01h  1
  94 -1.6519226e-01 3.69e-01 2.75e+01  -6.0 9.53e+01    -  4.11e-01 1.19e-01h  1
  95 -1.8772048e-01 4.31e+00 1.02e+02  -6.0 1.33e+02    -  5.20e-01 7.12e-01h  1
  96 -1.9024724e-01 3.93e+00 8.11e+01  -6.0 3.71e+02    -  4.62e-01 1.23e-01h  1
  97 -1.9685937e-01 5.20e+00 9.01e+01  -6.0 7.02e+02    -  6.42e-01 3.04e-01h  1
  98 -1.9793681e-01 4.96e+00 8.87e+01  -6.0 1.71e+03    -  3.18e-01 4.67e-02h  1
  99 -2.0051974e-01 4.32e+00 7.83e+01  -6.0 1.58e+03    -  5.98e-01 1.29e-01h  1
iter    objective    inf_pr   inf_du lg(mu)  ||d||  lg(rg) alpha_du alpha_pr  ls
 100 -2.0129078e-01 4.16e+00 7.46e+01  -6.0 1.70e+03    -  2.35e-01 3.69e-02h  1
 101 -2.0174896e-01 4.41e+00 7.38e+01  -6.0 1.10e+04    -  1.41e-02 1.44e-02h  1
 102 -2.0898256e-01 9.45e+00 3.38e+02  -6.0 2.13e+03    -  1.12e-01 3.21e-01h  1
 103 -2.0894593e-01 9.26e+00 3.04e+02  -6.0 4.19e+00  -2.9 5.71e-03 2.05e-02h  1
 104 -2.0881988e-01 8.48e+00 2.06e+02  -6.0 2.04e+00  -3.4 3.31e-02 8.37e-02h  1
 105 -2.0834327e-01 5.59e+00 3.66e+01  -6.0 2.07e+00  -3.8 1.01e-01 3.41e-01h  1
 106 -2.0802563e-01 3.37e+00 2.05e+01  -6.0 1.63e+00  -4.3 5.02e-01 3.98e-01h  1
 107 -2.0789705e-01 7.57e-01 3.65e+00  -6.0 1.74e+00  -4.8 9.54e-01 7.75e-01h  1
 108 -2.0820056e-01 2.95e-01 6.39e+00  -6.0 3.39e+00  -5.3 8.19e-01 6.10e-01h  1
 109 -2.0841378e-01 1.68e-01 2.52e+01  -6.0 4.02e+00  -5.7 1.00e+00 4.31e-01h  1
iter    objective    inf_pr   inf_du lg(mu)  ||d||  lg(rg) alpha_du alpha_pr  ls
 110 -2.0866779e-01 9.79e-02 8.66e+00  -6.0 9.89e+00  -6.2 7.62e-01 4.17e-01h  1
 111 -2.0928908e-01 9.89e-02 6.79e+00  -6.0 3.11e+01  -6.7 1.00e+00 6.08e-01h  1
 112 -2.1046383e-01 3.46e-01 3.61e+00  -6.0 1.01e+02  -7.2 1.83e-01 6.44e-01h  1
 113 -2.1099931e-01 3.75e-01 4.42e+01  -6.0 2.90e+02  -7.7 1.00e+00 1.17e-01h  1
 114 -2.1308890e-01 2.83e+00 2.11e+02  -6.0 8.93e+02  -8.1 1.00e+00 1.72e-01h  1
 115 -2.1373988e-01 2.78e+00 1.90e+02  -6.0 1.32e+03  -8.6 9.58e-02 5.48e-02h  1
 116 -2.1464533e-01 2.21e+00 3.73e+01  -6.0 3.84e+02  -8.2 1.00e+00 2.06e-01h  1
 117 -2.1489222e-01 2.17e+00 1.45e+02  -6.0 1.49e+03  -8.7 6.41e-02 2.13e-02h  1
 118 -2.1875273e-01 2.11e+00 4.55e+01  -6.0 3.59e+02  -8.2 1.00e+00 1.00e+00h  1
 119 -2.2013782e-01 1.88e+00 1.66e+03  -6.0 9.03e+02  -8.7 2.55e-01 1.81e-01h  1
iter    objective    inf_pr   inf_du lg(mu)  ||d||  lg(rg) alpha_du alpha_pr  ls
 120 -2.2212821e-01 1.22e+00 8.61e+03  -6.0 2.88e+02  -8.3 1.94e-01 6.29e-01h  1
 121 -2.2208291e-01 1.22e+00 1.94e+04  -6.0 1.55e+03  -7.9 3.11e-01 4.36e-02h  1
 122 -2.2372224e-01 4.65e+00 1.14e+05  -6.0 5.04e+02  -8.3 7.56e-03 4.67e-01h  1
 123 -2.2400584e-01 4.61e+00 9.22e+04  -6.0 4.94e+02  -7.9 4.08e-02 1.92e-01h  1
 124 -2.2397574e-01 3.65e+00 5.89e+04  -6.0 1.64e+02  -6.6 4.16e-02 3.61e-01h  1
 125 -2.2451637e-01 4.50e-01 2.30e+02  -6.0 1.55e+02  -7.1 1.13e-01 1.00e+00h  1
 126 -2.2482065e-01 1.40e-01 4.64e+01  -6.0 6.71e+01  -7.5 1.00e+00 7.03e-01h  1
 127 -2.2587206e-01 3.48e-01 9.60e+00  -6.0 1.43e+02  -8.0 4.84e-01 1.00e+00h  1
 128 -2.2645115e-01 3.43e-01 1.63e+01  -6.0 2.84e+02  -8.5 4.30e-01 2.38e-01h  1
 129 -2.2804716e-01 1.01e+00 1.56e+01  -6.0 1.31e+03  -9.0 1.32e-01 3.05e-01h  1
iter    objective    inf_pr   inf_du lg(mu)  ||d||  lg(rg) alpha_du alpha_pr  ls
 130 -2.2838123e-01 8.81e-01 4.48e+01  -6.0 4.34e+02  -8.5 1.00e+00 1.48e-01h  1
 131 -2.3027790e-01 3.15e+00 2.38e+01  -6.0 1.92e+03  -9.0 2.45e-01 3.14e-01h  1
 132 -2.3096585e-01 2.54e+00 2.36e+01  -6.0 2.90e+02  -8.6 5.90e-01 3.41e-01h  1
 133 -2.3226218e-01 3.76e+00 1.97e+02  -6.0 1.89e+03  -9.1 9.88e-01 3.40e-01h  1
 134 -2.3525804e-01 6.53e+00 2.17e+02  -6.0 9.04e+02  -8.6 3.61e-01 1.00e+00h  1
 135 -2.3590287e-01 6.80e+00 8.64e+01  -6.0 7.64e+02  -8.2 2.25e-01 1.16e-01h  1
Error in an AMPL evaluation. Run with "halt_on_ampl_error yes" to see details.
Warning: Cutting back alpha due to evaluation error
 136 -2.3616096e-01 6.68e+00 1.15e+02  -6.0 4.30e+02  -7.8 5.35e-03 4.48e-02h  2
 137 -2.3640853e-01 6.54e+00 9.43e+01  -6.0 2.51e+02  -7.4 1.67e-01 4.10e-02h  1
 138 -2.3676617e-01 6.48e+00 1.19e+02  -6.0 4.02e+02  -7.8 1.94e-03 3.88e-02h  1
 139 -2.3676639e-01 6.47e+00 1.66e+02  -6.0 8.05e+00  -0.0 9.66e-04 1.34e-03h  1
iter    objective    inf_pr   inf_du lg(mu)  ||d||  lg(rg) alpha_du alpha_pr  ls
 140 -2.3676521e-01 6.46e+00 2.17e+02  -6.0 8.12e+00  -0.5 1.18e-03 1.46e-03h  1
 141 -2.3675793e-01 6.41e+00 5.08e+02  -6.0 9.21e+00  -1.0 5.02e-03 7.88e-03h  1
 142 -2.3675531e-01 6.40e+00 5.08e+02  -6.0 9.14e+00  -0.5 4.05e-03 2.19e-03h  1
 143 -2.3674984e-01 6.37e+00 5.05e+02  -6.0 9.13e+00  -1.0 4.41e-03 4.67e-03h  1
 144 -2.3674304e-01 6.33e+00 5.03e+02  -6.0 9.08e+00  -0.6 1.76e-02 6.12e-03h  1
 145 -2.3667963e-01 5.97e+00 4.74e+02  -6.0 9.05e+00  -1.1 5.60e-03 5.77e-02h  1
 146 -2.3664206e-01 5.74e+00 4.64e+02  -6.0 8.56e+00  -0.6 8.96e-02 3.77e-02h  1
 147 -2.3636545e-01 4.12e+00 3.64e+03  -6.0 8.34e+00  -1.1 1.38e-01 2.97e-01h  1
 148 -2.3581840e-01 2.76e-01 8.82e+03  -6.0 6.22e+00  -1.6 9.33e-01 1.00e+00h  1
 149 -2.3583777e-01 1.45e-03 6.34e+02  -6.0 8.51e-02  -2.1 4.60e-01 1.00e+00h  1
iter    objective    inf_pr   inf_du lg(mu)  ||d||  lg(rg) alpha_du alpha_pr  ls
 150 -2.3584557e-01 3.03e-05 3.66e+01  -6.0 1.95e-02  -2.5 5.75e-01 1.00e+00h  1
 151 -2.3586929e-01 2.71e-04 2.59e+01  -6.0 4.74e-02  -3.0 5.50e-01 1.00e+00h  1
 152 -2.3593815e-01 2.38e-03 1.12e+01  -6.0 1.36e-01  -3.5 6.31e-01 1.00e+00h  1
 153 -2.3610618e-01 1.72e-02 4.97e+00  -6.0 3.53e-01  -4.0 6.70e-01 9.55e-01h  1
 154 -2.3612649e-01 1.61e-02 1.38e+01  -6.0 6.26e-01  -4.4 8.70e-01 1.32e-01f  1
 155 -2.3629554e-01 2.00e-02 8.65e+00  -6.0 1.44e+00  -4.9 7.31e-01 5.57e-01f  1
 156 -2.3631865e-01 3.51e-02 1.65e+01  -6.0 2.47e+01  -5.4 1.20e-01 1.85e-02h  1
 157 -2.3643612e-01 6.49e-02 1.35e+01  -6.0 1.47e+01  -5.9 1.46e-01 1.68e-01h  1
 158 -2.3649148e-01 6.11e-02 1.45e+01  -6.0 7.84e+01  -6.4 1.89e-01 4.82e-02h  1
 159 -2.3664530e-01 1.88e-01 1.35e+01  -6.0 3.27e+01  -6.8 3.02e-01 2.10e-01h  1
iter    objective    inf_pr   inf_du lg(mu)  ||d||  lg(rg) alpha_du alpha_pr  ls
 160 -2.3702714e-01 7.78e-01 7.91e+00  -6.0 9.29e+01  -7.3 2.84e-01 3.86e-01h  1
 161 -2.3718298e-01 7.80e-01 1.06e+01  -6.0 2.18e+02  -7.8 3.36e-01 6.98e-02f  1
 162 -2.3754632e-01 7.23e-01 1.13e+01  -6.0 4.33e+02  -8.3 2.93e-01 1.17e-01h  1
 163 -2.3848963e-01 4.81e-01 8.45e+00  -6.0 4.84e+02  -8.7 2.78e-01 2.67e-01h  1
 164 -2.3933645e-01 6.30e-01 3.21e+01  -6.0 1.72e+03  -9.2 1.23e-01 1.34e-01h  1
 165 -2.3967920e-01 5.33e-01 1.61e+03  -6.0 4.84e+02  -8.8 1.00e+00 1.60e-01h  1
 166 -2.4072785e-01 1.15e+00 9.07e+02  -6.0 1.80e+03  -9.3 9.20e-02 2.25e-01h  1
 167 -2.4142416e-01 7.37e-01 1.23e+03  -6.0 4.69e+02  -8.8 5.85e-01 3.84e-01h  1
 168 -2.4219282e-01 1.16e+00 1.82e+02  -6.0 1.13e+03  -9.3 1.22e-01 2.14e-01h  1
 169 -2.4304899e-01 9.12e-01 1.98e+03  -6.0 1.66e+03  -9.8 3.24e-01 1.99e-01h  1
iter    objective    inf_pr   inf_du lg(mu)  ||d||  lg(rg) alpha_du alpha_pr  ls
 170 -2.4310462e-01 6.45e-01 1.62e+05  -6.0 4.87e+01  -5.8 1.77e-02 2.93e-01h  1
 171 -2.4306440e-01 1.99e-01 4.97e+04  -6.0 1.72e+00  -5.3 5.85e-01 6.92e-01h  1
 172 -2.4301354e-01 7.46e-04 1.12e+02  -6.0 1.27e+00  -5.8 7.99e-01 1.00e+00h  1
 173 -2.4301462e-01 4.17e-04 1.44e-01  -6.0 1.87e+00  -6.3 1.00e+00 1.00e+00h  1
 174 -2.4303765e-01 7.66e-04 8.40e-02  -6.0 4.34e+00  -6.8 1.00e+00 1.00e+00h  1
 175 -2.4309807e-01 3.75e-03 5.91e-02  -6.0 1.15e+01  -7.2 1.00e+00 1.00e+00h  1
 176 -2.4325455e-01 2.84e-02 1.83e-01  -6.0 3.17e+01  -7.7 1.00e+00 1.00e+00h  1
 177 -2.4363601e-01 2.07e-01 1.26e+00  -6.0 8.56e+01  -8.2 1.00e+00 1.00e+00h  1
 178 -2.4409131e-01 4.93e-01 9.36e+00  -6.0 2.12e+02  -8.7 1.00e+00 6.15e-01h  1
 179 -2.4538819e-01 2.44e+00 3.51e+00  -6.0 5.46e+02  -9.2 1.00e+00 1.00e+00h  1
iter    objective    inf_pr   inf_du lg(mu)  ||d||  lg(rg) alpha_du alpha_pr  ls
 180 -2.4586345e-01 2.99e+00 6.72e+00  -6.0 1.10e+03  -9.6 2.37e-01 2.31e-01h  1
 181 -2.4616290e-01 4.03e+00 2.63e+01  -6.0 2.39e+03 -10.1 5.26e-02 1.20e-01h  1
 182 -2.4803943e-01 5.68e+01 9.98e+02  -6.0 2.44e+03 -10.6 5.51e-02 7.41e-01h  1
 183 -2.4806134e-01 5.34e+01 8.83e+02  -6.0 1.35e+03  -8.4 3.71e-01 5.96e-02h  1
 184 -2.4789691e-01 2.45e+01 4.27e+02  -6.0 1.17e+02  -8.8 6.99e-01 5.41e-01h  1
 185 -2.4796348e-01 3.17e+00 1.95e+02  -6.0 3.48e+02  -9.3 1.72e-01 9.03e-01h  1
 186 -2.4807197e-01 2.75e+00 9.58e+01  -6.0 8.64e+02  -9.8 2.34e-01 1.77e-01h  1
 187 -2.4855672e-01 6.24e+00 2.03e+02  -6.0 1.24e+04 -10.3 3.70e-02 1.20e-01h  1
 188 -2.4881867e-01 7.29e-01 7.28e+02  -6.0 5.11e+02  -8.9 4.63e-01 1.00e+00h  1
 189 -2.4891231e-01 2.42e-01 2.08e+03  -6.0 1.03e+02  -7.6 3.58e-01 1.00e+00h  1
iter    objective    inf_pr   inf_du lg(mu)  ||d||  lg(rg) alpha_du alpha_pr  ls
 190 -2.4915752e-01 1.62e-01 1.05e+03  -6.0 8.48e+01  -8.1 5.00e-01 4.94e-01h  1
 191 -2.4926999e-01 4.96e-01 7.32e+02  -6.0 2.00e+02  -8.6 3.01e-02 2.01e-01h  1
 192 -2.4947946e-01 5.19e-01 4.28e+03  -6.0 2.40e+02  -9.0 1.19e-01 4.19e-01h  1
 193 -2.4975933e-01 1.19e+00 2.63e+03  -6.0 4.72e+03  -9.5 8.15e-02 4.62e-02h  1
 194 -2.4987430e-01 1.17e+00 6.43e+02  -6.0 7.06e+02  -9.1 5.89e-01 1.04e-01h  1
 195 -2.5116781e-01 2.41e+01 3.54e+05  -6.0 1.26e+04  -9.6 2.09e-03 8.43e-02h  1
 196 -2.5105708e-01 2.30e+01 3.36e+05  -6.0 1.49e+03  -9.1 8.05e-02 5.05e-02h  1
 197 -2.5132199e-01 2.02e+01 2.94e+05  -6.0 9.10e+02  -8.7 5.11e-02 1.27e-01h  1
 198 -2.5150053e-01 1.93e+01 2.79e+05  -6.0 1.39e+03  -9.2 4.34e-01 5.08e-02h  1
 199 -2.5229119e-01 1.98e+01 2.40e+05  -6.0 2.76e+03  -9.7 1.36e-01 1.37e-01h  1
iter    objective    inf_pr   inf_du lg(mu)  ||d||  lg(rg) alpha_du alpha_pr  ls
 200 -2.5435615e-01 3.50e+01 9.86e+04  -6.0 1.85e+03 -10.1 1.71e-02 5.90e-01h  1
 201 -2.5442651e-01 3.45e+01 9.70e+04  -6.0 8.47e+03 -10.6 4.00e-02 1.59e-02h  1
 202 -2.5444514e-01 3.44e+01 9.69e+04  -6.0 1.08e+04 -11.1 1.09e-02 1.08e-03h  1
 203 -2.5448878e-01 3.46e+01 9.66e+04  -6.0 2.03e+05 -11.6 4.05e-03 2.34e-03h  1
 204 -2.5450295e-01 3.45e+01 9.64e+04  -6.0 3.86e+04 -11.1 3.59e-02 2.59e-03h  1
 205 -2.5464880e-01 3.42e+01 9.56e+04  -6.0 1.40e+05 -11.6 1.82e-03 7.99e-03h  1
 206 -2.5495071e-01 3.20e+01 8.93e+04  -6.0 4.53e+03 -10.3 2.16e-02 6.59e-02h  1
 207 -2.5495342e-01 3.20e+01 8.93e+04  -6.0 1.76e+03  -9.9 1.08e-01 5.87e-04h  1
 208 -2.5821911e-01 9.75e+00 2.72e+04  -6.0 4.19e+03 -10.3 2.69e-01 6.95e-01h  1
 209 -2.5835620e-01 7.54e+00 2.10e+04  -6.0 2.39e+03  -9.9 5.00e-01 2.27e-01h  1
iter    objective    inf_pr   inf_du lg(mu)  ||d||  lg(rg) alpha_du alpha_pr  ls
 210 -2.5827203e-01 2.53e+00 2.38e+03  -6.0 9.82e+02  -9.5 1.67e-01 8.87e-01h  1
 211 -2.5845162e-01 2.08e+00 5.14e+00  -6.0 5.84e+02  -9.1 1.00e+00 1.00e+00h  1
 212 -2.5854856e-01 2.25e+00 5.85e+00  -6.0 1.55e+04  -9.5 1.23e-02 1.52e-02h  1
 213 -2.5873376e-01 9.61e-01 1.36e+01  -6.0 6.35e+02  -9.1 4.06e-01 1.00e+00h  1
 214 -2.5896724e-01 1.50e+00 9.17e+00  -6.0 7.17e+02  -9.6 1.00e+00 1.00e+00h  1
 215 -2.5921509e-01 3.13e+00 3.93e+00  -6.0 1.16e+03 -10.1 2.29e-01 5.41e-01h  1
 216 -2.5959086e-01 8.94e+00 1.03e+01  -6.0 1.25e+03 -10.5 5.17e-01 1.00e+00h  1
 217 -2.5959274e-01 1.25e+01 3.31e+01  -6.0 2.31e+04    -  1.17e-01 2.78e-02h  2
 218 -2.5962869e-01 1.04e+01 2.40e+01  -6.0 1.97e+03    -  1.00e+00 2.57e-01h  1
 219 -2.5967428e-01 9.87e+00 1.73e+01  -6.0 1.55e+03    -  3.45e-01 4.16e-01h  1
iter    objective    inf_pr   inf_du lg(mu)  ||d||  lg(rg) alpha_du alpha_pr  ls
 220 -2.5969188e-01 8.25e+00 1.29e+01  -6.0 1.63e+03 -10.1 3.51e-01 2.48e-01h  1
 221 -2.5972118e-01 4.63e+00 1.00e+01  -6.0 9.03e+02 -10.6 2.27e-01 4.53e-01h  1
 222 -2.5975274e-01 1.44e+01 1.59e+01  -6.0 1.11e+03  -9.3 3.45e-01 1.00e+00h  1
 223 -2.5975466e-01 1.36e+01 1.50e+01  -6.0 8.03e+02    -  2.61e-01 5.81e-02h  2
 224 -2.5976617e-01 3.83e+00 1.40e+01  -6.0 1.46e+02  -9.7 7.88e-02 7.20e-01h  1
 225 -2.5976630e-01 4.29e+00 4.52e+00  -6.0 6.02e+02  -8.4 6.72e-01 1.00e+00h  1
 226 -2.5977413e-01 3.00e+00 3.56e+00  -6.0 4.43e+02    -  5.51e-01 3.74e-01h  1
 227 -2.5977571e-01 1.65e-02 9.94e-05  -6.0 1.28e+01  -8.9 1.00e+00 1.00e+00h  1
 228 -2.5977744e-01 1.54e-01 9.38e-04  -6.0 4.18e+01  -9.4 1.00e+00 1.00e+00h  1
 229 -2.5977949e-01 5.03e-01 1.58e-02  -6.0 1.72e+02  -9.9 1.00e+00 1.00e+00h  1
iter    objective    inf_pr   inf_du lg(mu)  ||d||  lg(rg) alpha_du alpha_pr  ls
 230 -2.5978133e-01 1.81e+00 8.37e-02  -6.0 3.93e+02 -10.3 1.00e+00 1.00e+00h  1
 231 -2.5978208e-01 3.52e-01 1.42e-02  -6.0 1.61e+02  -9.9 1.00e+00 1.00e+00h  1
 232 -2.5978384e-01 2.02e+00 9.61e-02  -6.0 4.14e+02 -10.4 1.00e+00 1.00e+00h  1
 233 -2.5978418e-01 2.02e+00 2.76e+01  -6.0 1.80e+03    -  1.00e+00 7.74e-02h  2
 234 -2.5978443e-01 2.30e-01 1.30e+01  -6.0 1.42e+02    -  4.83e-01 9.98e-01h  1
 235 -2.5978565e-01 2.37e-02 2.12e-03  -6.0 4.51e+01    -  1.00e+00 1.00e+00h  1
 236 -2.5978551e-01 2.15e-04 1.54e-05  -6.0 4.30e+00    -  1.00e+00 1.00e+00h  1
 237 -2.5978551e-01 1.46e-08 1.00e-09  -6.0 3.54e-02    -  1.00e+00 1.00e+00h  1
 238 -2.6041233e-01 2.86e+00 4.03e+01  -7.5 2.87e+03    -  4.38e-01 2.97e-01f  1
 239 -2.6061371e-01 3.14e+00 2.09e+01  -7.5 2.89e+03    -  1.12e-01 1.86e-01h  1
iter    objective    inf_pr   inf_du lg(mu)  ||d||  lg(rg) alpha_du alpha_pr  ls
 240 -2.6072604e-01 2.99e+00 6.22e+01  -7.5 2.45e+03    -  4.45e-01 1.34e-01h  1
 241 -2.6089634e-01 3.33e+00 4.06e+01  -7.5 2.44e+03    -  1.48e-01 2.36e-01h  1
 242 -2.6091424e-01 3.20e+00 1.23e+02  -7.5 2.87e+02 -10.0 9.18e-01 4.09e-02h  1
 243 -2.6120991e-01 1.84e+00 2.88e+01  -7.5 6.26e+02 -10.4 9.97e-02 7.16e-01h  1
 244 -2.6127018e-01 1.65e+00 2.48e+01  -7.5 2.11e+03    -  5.64e-02 1.32e-01h  1
 245 -2.6127752e-01 1.52e+00 3.30e+01  -7.5 8.52e+02 -10.9 1.00e+00 7.95e-02h  1
 246 -2.6132266e-01 1.08e+00 1.59e+01  -7.5 1.24e+03 -11.4 1.00e+00 5.12e-01h  1
 247 -2.6134588e-01 1.78e+00 6.41e+00  -7.5 9.26e+02 -11.9 8.01e-01 5.96e-01h  1
 248 -2.6133747e-01 7.11e-01 3.76e+00  -7.5 5.70e+02 -11.4 6.51e-02 1.00e+00H  1
 249 -2.6133992e-01 7.02e-02 1.97e-01  -7.5 6.23e+01  -9.2 1.00e+00 1.00e+00h  1
iter    objective    inf_pr   inf_du lg(mu)  ||d||  lg(rg) alpha_du alpha_pr  ls
 250 -2.6134222e-01 5.95e-01 5.26e-02  -7.5 1.17e+02  -9.7 1.00e+00 7.40e-01h  1
 251 -2.6134502e-01 3.20e-01 2.58e-03  -7.5 1.32e+02 -10.2 1.00e+00 1.00e+00h  1
 252 -2.6135028e-01 2.43e+00 2.49e-02  -7.5 3.65e+02 -10.6 1.00e+00 1.00e+00h  1
 253 -2.6134724e-01 1.30e-01 3.58e-02  -7.5 5.44e+01 -11.1 5.41e-01 1.00e+00h  1
 254 -2.6134717e-01 8.55e-02 7.57e-06  -7.5 2.32e+01 -10.7 1.00e+00 1.00e+00h  1
 255 -2.6134717e-01 8.47e-02 1.01e-04  -7.5 8.45e+01 -11.2 1.00e+00 1.00e+00h  1
 256 -2.6134716e-01 7.85e-03 2.35e-04  -7.5 1.27e+02 -11.6 1.00e+00 1.00e+00H  1
 257 -2.6134715e-01 9.10e-01 8.45e-02  -7.5 5.88e+02 -12.1 5.77e-01 2.50e-01h  3
 258 -2.6134726e-01 1.04e+00 2.88e-01  -7.5 1.45e+03 -11.7 7.48e-01 1.00e+00H  1
 259 -2.6134756e-01 1.47e+00 1.19e-02  -7.5 9.82e+02 -12.2 9.80e-01 1.00e+00H  1
iter    objective    inf_pr   inf_du lg(mu)  ||d||  lg(rg) alpha_du alpha_pr  ls
 260 -2.6134774e-01 1.07e+02 2.00e+00  -7.5 5.47e+03 -12.6 1.88e-02 1.00e+00H  1
 261 -2.6134764e-01 7.93e+01 1.47e+00  -7.5 1.30e+03    -  1.00e+00 2.50e-01h  3
 262 -2.6134763e-01 7.68e+01 1.22e+00  -7.5 1.88e+03    -  1.00e+00 3.12e-02h  6
 263 -2.6134763e-01 7.56e+01 1.29e+00  -7.5 1.25e+03    -  1.00e+00 1.56e-02h  7
 264 -2.6134763e-01 7.56e+01 1.29e+00  -7.5 1.37e+03    -  1.00e+00 1.22e-04h 14
 265 -2.6134748e-01 1.99e+01 9.06e-02  -7.5 1.32e+03    -  1.00e+00 1.00e+00s 22
 266r-2.6134748e-01 1.99e+01 9.99e+02   1.0 0.00e+00 -13.1 0.00e+00 0.00e+00R  1
 267r-2.6135348e-01 1.99e+01 9.99e+02   1.0 1.79e+06    -  2.36e-08 6.21e-09f  1
 268r-2.6135348e-01 1.99e+01 9.99e+02   1.0 0.00e+00    -  0.00e+00 5.22e-08R  5
 269r-2.6134471e-01 1.99e+01 1.78e+03   1.0 1.37e+06    -  9.33e-09 2.22e-09f  1
iter    objective    inf_pr   inf_du lg(mu)  ||d||  lg(rg) alpha_du alpha_pr  ls
 270 -2.6134482e-01 1.97e+01 3.26e+03  -7.5 7.86e+00    -  2.64e-06 8.58e-03h  1
 271 -2.6134401e-01 1.00e+01 1.65e+03  -7.5 7.75e+00    -  1.10e-02 4.92e-01h  1
 272 -2.6134358e-01 6.07e+00 9.97e+02  -7.5 3.93e+00    -  5.52e-01 3.95e-01h  1
 273 -2.6134380e-01 8.30e-01 1.36e+02  -7.5 2.38e+00    -  8.06e-01 8.63e-01h  1
 274 -2.6134402e-01 6.43e-01 1.06e+02  -7.5 3.22e-01    -  9.92e-01 2.25e-01h  1
 275 -2.6134721e-01 2.72e-05 8.29e-02  -7.5 6.02e-01    -  9.95e-01 1.00e+00h  1
 276 -2.6134762e-01 5.98e-05 1.98e-04  -7.5 2.11e+00    -  1.00e+00 1.00e+00h  1
 277 -2.6134768e-01 3.30e-01 1.15e+00  -7.5 5.73e+03 -12.7 3.89e-01 2.73e-02h  5
 278 -2.6134775e-01 6.52e-01 2.83e+00  -7.5 2.06e+04    -  2.14e-01 7.54e-03h  5
 279 -2.6134776e-01 6.43e-01 9.40e-01  -7.5 9.25e+02    -  1.00e+00 3.12e-02h  6
iter    objective    inf_pr   inf_du lg(mu)  ||d||  lg(rg) alpha_du alpha_pr  ls
 280 -2.6134778e-01 6.50e-01 1.35e+00  -7.5 2.26e+03    -  1.00e+00 1.56e-02h  7
 281 -2.6134779e-01 6.54e-01 1.35e+00  -7.5 2.01e+03    -  1.00e+00 1.56e-02h  7
 282 -2.6134883e-01 2.00e+01 7.34e-01  -7.5 1.46e+03    -  2.37e-01 1.00e+00H  1
 283 -2.6134946e-01 7.52e+00 8.65e-01  -7.5 6.96e+02 -11.4 1.80e-01 1.00e+00h  1
 284 -2.6134954e-01 8.07e-02 1.10e-03  -7.5 6.54e+01 -10.9 1.00e+00 1.00e+00h  1
 285 -2.6135157e-01 1.32e+01 1.08e+00  -7.5 1.68e+03    -  5.07e-01 1.00e+00H  1
 286 -2.6135096e-01 7.04e+00 1.06e-01  -7.5 6.59e+02    -  1.00e+00 1.00e+00h  1
 287 -2.6135092e-01 1.92e-02 4.76e-04  -7.5 4.14e+01    -  1.00e+00 1.00e+00h  1
 288 -2.6135091e-01 4.13e-03 2.30e-05  -7.5 1.59e+01    -  1.00e+00 1.00e+00h  1
 289 -2.6135091e-01 9.09e-09 9.27e-11  -7.5 2.78e-02    -  1.00e+00 1.00e+00h  1
iter    objective    inf_pr   inf_du lg(mu)  ||d||  lg(rg) alpha_du alpha_pr  ls
 290 -2.6135294e-01 2.99e+00 2.62e+00  -9.0 2.03e+03    -  4.68e-01 2.11e-01h  1
 291 -2.6135586e-01 5.86e+01 7.79e-01  -9.0 4.13e+03    -  3.30e-01 4.52e-01h  1
 292 -2.6135697e-01 4.01e+01 3.40e+00  -9.0 1.52e+03    -  1.83e-01 5.33e-01h  1
 293 -2.6135754e-01 7.35e+00 1.96e+01  -9.0 3.49e+02    -  6.66e-02 8.70e-01h  1
 294 -2.6135793e-01 4.55e+00 6.62e-01  -9.0 4.80e+02 -11.4 7.60e-01 1.00e+00h  1
 295 -2.6135915e-01 5.04e+01 5.50e-01  -9.0 4.14e+03    -  1.72e-01 3.77e-01h  1
 296 -2.6135915e-01 5.04e+01 5.48e-01  -9.0 1.06e+05    -  2.67e-03 2.18e-04h  8
 297 -2.6135930e-01 2.85e+01 1.94e+01  -9.0 1.11e+03 -11.9 3.42e-03 1.00e+00h  1
 298 -2.6135985e-01 3.48e+01 1.64e+01  -9.0 4.35e+03 -12.4 2.42e-01 1.57e-01h  1
 299 -2.6136055e-01 6.00e+00 3.29e-01  -9.0 7.18e+02 -12.9 1.87e-01 1.00e+00h  1
iter    objective    inf_pr   inf_du lg(mu)  ||d||  lg(rg) alpha_du alpha_pr  ls
 300 -2.6136056e-01 6.00e+00 3.28e-01  -9.0 6.72e+04 -13.3 1.82e-02 1.53e-04h  6
 301 -2.6136078e-01 4.11e+00 2.64e-01  -9.0 9.86e+02    -  1.97e-01 3.23e-01h  1
 302 -2.6136071e-01 4.53e-01 1.56e-01  -9.0 1.47e+02 -12.0 4.27e-01 1.00e+00h  1
 303 -2.6136076e-01 5.56e-01 9.00e-02  -9.0 1.06e+02    -  4.18e-01 1.00e+00h  1
 304 -2.6136100e-01 1.92e+00 1.93e-03  -9.0 1.10e+03 -12.5 1.00e+00 1.00e+00H  1
 305 -2.6136169e-01 9.43e+01 9.73e-03  -9.0 4.14e+03 -13.0 5.40e-01 6.65e-01h  1
 306 -2.6136178e-01 8.85e+01 4.49e-02  -9.0 1.07e+04 -13.4 2.34e-01 6.21e-02h  3
 307 -2.6136227e-01 7.26e+01 5.62e-02  -9.0 2.81e+03 -13.0 4.43e-01 2.88e-01h  1
 308 -2.6136235e-01 7.14e+01 1.11e-01  -9.0 1.77e+04 -13.5 1.43e-01 1.65e-02h  4
 309 -2.6136406e-01 8.01e+01 1.71e-02  -9.0 2.46e+03 -13.1 1.00e+00 1.00e+00h  1
iter    objective    inf_pr   inf_du lg(mu)  ||d||  lg(rg) alpha_du alpha_pr  ls
 310 -2.6136447e-01 5.52e+01 3.19e-01  -9.0 1.93e+03    -  4.36e-02 3.12e-01h  1
 311 -2.6136580e-01 5.81e+01 1.72e+00  -9.0 1.86e+03    -  1.79e-01 1.00e+00h  1
 312 -2.6136674e-01 3.51e+01 1.64e+01  -9.0 1.36e+03 -11.7 5.07e-02 1.00e+00h  1
 313 -2.6136741e-01 7.10e+01 1.62e+01  -9.0 1.65e+05    -  1.30e-03 1.33e-02h  1
 314 -2.6136725e-01 6.45e+01 1.40e+01  -9.0 3.33e+03    -  8.36e-02 1.38e-01h  3
 315 -2.6136772e-01 5.62e+00 9.52e-02  -9.0 5.33e+02 -12.2 2.34e-01 1.00e+00h  1
 316 -2.6136859e-01 5.08e+01 9.06e-02  -9.0 3.24e+04 -12.7 4.90e-02 4.86e-02h  1
 317 -2.6136863e-01 5.05e+01 2.37e-01  -9.0 2.19e+04    -  2.95e-02 5.17e-03h  5
 318 -2.6136868e-01 5.03e+01 5.31e-01  -9.0 1.94e+04    -  8.63e-02 5.77e-03h  5
 319 -2.6136941e-01 5.42e+01 5.85e-01  -9.0 1.30e+04    -  1.85e-01 1.37e-01H  1
iter    objective    inf_pr   inf_du lg(mu)  ||d||  lg(rg) alpha_du alpha_pr  ls
 320 -2.6136973e-01 4.16e+01 1.18e+00  -9.0 1.58e+03    -  8.50e-01 3.25e-01h  1
 321 -2.6137007e-01 2.91e+01 1.34e+01  -9.0 1.47e+03    -  1.29e-02 4.26e-01h  1
 322 -2.6137043e-01 2.93e+01 1.00e+01  -9.0 1.38e+03    -  4.16e-02 6.52e-01h  1
 323 -2.6137038e-01 2.61e+01 1.31e+01  -9.0 1.29e+03 -12.3 1.88e-02 6.29e-01h  1
 324 -2.6137048e-01 2.25e+01 1.11e+01  -9.0 2.71e+03    -  5.24e-01 1.37e-01h  3
 325 -2.6137057e-01 1.88e+01 9.30e+00  -9.0 2.23e+03    -  1.58e-01 1.64e-01h  3
 326 -2.6137067e-01 1.62e+01 7.91e+00  -9.0 2.48e+03    -  9.49e-01 1.38e-01h  3
 327 -2.6137087e-01 1.74e+01 4.74e+00  -9.0 1.79e+03    -  4.85e-01 4.00e-01h  2
 328 -2.6137094e-01 1.73e+01 4.28e+00  -9.0 2.73e+03    -  7.07e-01 9.93e-02h  3
 329 -2.6137112e-01 1.98e+01 2.86e+00  -9.0 1.82e+03    -  1.00e+00 3.32e-01h  2
iter    objective    inf_pr   inf_du lg(mu)  ||d||  lg(rg) alpha_du alpha_pr  ls
 330 -2.6137133e-01 2.01e+01 1.73e+00  -9.0 1.71e+03    -  5.15e-01 3.94e-01H  1
 331 -2.6137138e-01 8.18e+00 8.60e-01  -9.0 6.21e+02    -  2.56e-01 6.04e-01h  1
 332 -2.6137136e-01 2.75e+00 2.10e-01  -9.0 1.86e+02    -  9.72e-01 6.92e-01h  1
 333 -2.6137138e-01 2.32e-01 1.21e-05  -9.0 9.67e+01    -  1.00e+00 1.00e+00h  1
 334 -2.6137138e-01 8.28e-03 1.21e-06  -9.0 1.83e+01    -  1.00e+00 1.00e+00h  1
 335 -2.6137138e-01 9.46e-08 8.16e-11  -9.0 7.10e-02    -  1.00e+00 1.00e+00h  1
 336 -2.6137138e-01 1.42e-10 1.64e-14  -9.0 5.81e-06    -  1.00e+00 1.00e+00h  1

Number of Iterations....: 336

                                   (scaled)                 (unscaled)
Objective...............:  -2.6137138198733739e-01   -2.6137138198733739e-01
Dual infeasibility......:   1.6367414158056053e-14    1.6367414158056053e-14
Constraint violation....:   1.4170840152358255e-10    1.4170840152358255e-10
Complementarity.........:   9.0909091129268936e-10    9.0909091129268936e-10
Overall NLP error.......:   9.0909091129268936e-10    9.0909091129268936e-10


Number of objective function evaluations             = 718
Number of objective gradient evaluations             = 335
Number of equality constraint evaluations            = 719
Number of inequality constraint evaluations          = 719
Number of equality constraint Jacobian evaluations   = 341
Number of inequality constraint Jacobian evaluations = 341
Number of Lagrangian Hessian evaluations             = 336
Total CPU secs in IPOPT (w/o function evaluations)   =    739.498
Total CPU secs in NLP function evaluations           =     13.800

EXIT: Optimal Solution Found.
